NAME : kroE100.67053.tour
COMMENT : Cost = 7040_67053
COMMENT : Found by LKH [Keld Helsgaun] Thu Nov 16 17:33:47 2017
TYPE : TOUR
DIMENSION : 119
TOUR_SECTION
1
21
101
7
102
83
103
76
104
69
105
12
106
51
107
47
108
32
109
63
62
56
15
20
49
50
60
87
67
27
41
9
10
17
84
35
88
111
14
44
72
68
38
86
18
24
94
19
43
22
33
116
40
99
80
75
82
2
92
57
97
54
45
118
52
90
91
53
78
34
55
93
30
115
73
16
61
71
89
81
79
26
46
3
117
25
4
11
13
31
113
58
64
23
28
36
95
59
98
112
65
6
37
77
85
96
70
66
114
48
29
39
110
8
5
42
100
119
74
-1
EOF
